\ Model cdsched_delay_opt_copy
\ LP format - for model browsing. Use MPS format to capture full model detail.
\ Signature: 0x833cd2eb38385b5f
Minimize
 
Subject To
 R2432: e_min_0_tau32_one_second_loop_0
   + 21000 b_min_0_tau32_one_second_loop_0 >= 100000
Bounds
 -infinity <= e_min_0_tau32_one_second_loop_0 <= 21000
Binaries
 b_min_0_tau32_one_second_loop_0
End
